24
Caffeine
C         3.273023      -0.002029      -0.749582
N         2.187734      -0.015416       0.203489
C         2.336857      -0.043176       1.586226
N         1.073299      -0.010912       2.210704
C         0.140605       0.048556       1.184102
C         0.848336       0.054716      -0.081713
C         0.115325      -0.019071      -1.256134
O         0.660241      -0.000567      -2.367102
N        -1.261057      -0.005424      -1.190934
C        -2.036693      -0.000999      -2.440501
C        -1.900626      -0.004138       0.012739
O        -3.138230      -0.000057       0.053003
N        -1.197800      -0.011626       1.196087
C        -1.950257      -0.003079       2.464360
H         4.222348       0.000263      -0.244541
H         3.229926      -0.871188      -1.382503
H         3.220454       0.871912      -1.374036
H         3.239893       0.016839       2.103263
H        -3.081589      -0.000231      -2.211322
H        -1.794537       0.873546      -3.007175
H        -1.796637      -0.873767      -3.010980
H        -1.262244      -0.001348       3.282475
H        -2.561966       0.872563       2.506479
H        -2.566405      -0.875365       2.513597
